(declare-fun t () Int)
(assert (>= t 0))
(assert (<= t 200000000000))
(declare-fun k!30004 () Int)
(assert (= k!30004 (mod (- t 951868800) 86400)))
(declare-fun k!30005 () Int)
(assert (= k!30005 (ite (< k!30004 0) (+ k!30004 86400) k!30004)))
(declare-fun k!30006 () Int)
(assert (let ((a!1 (ite (< (ite (< k!30004 0) (+ k!30004 86400) k!30004) 0)
                (- (div (- t 951868800) 86400) 1)
                (div (- t 951868800) 86400))))
  (= k!30006 a!1)))
(declare-fun k!10001 () Int)
(assert (= k!10001
   (ite (< (mod k!30006 146097) 0)
        (+ (mod k!30006 146097) 146097)
        (mod k!30006 146097))))
(declare-fun k!30001 () Int)
(assert (= k!30001
   (ite (< (mod k!30006 146097) 0)
        (- (div k!30006 146097) 1)
        (div k!30006 146097))))
(declare-fun k!10002 () Int)
(assert (let ((a!1 (* (ite (= (div k!10001 36524) 4)
                   (- (div k!10001 36524) 1)
                   (div k!10001 36524))
              36524)))
  (= k!10002 (- k!10001 a!1))))
(declare-fun k!30002 () Int)
(assert (= k!30002
   (ite (= (div k!10001 36524) 4) (- (div k!10001 36524) 1) (div k!10001 36524))))
(declare-fun k!10003 () Int)
(assert (let ((a!1 (* (ite (= (div k!10002 1461) 25)
                   (- (div k!10002 1461) 1)
                   (div k!10002 1461))
              1461)))
  (= k!10003 (- k!10002 a!1))))
(declare-fun k!30003 () Int)
(assert (= k!30003
   (ite (= (div k!10002 1461) 25) (- (div k!10002 1461) 1) (div k!10002 1461))))
(declare-fun k!10004 () Int)
(assert (let ((a!1 (* (ite (= (div k!10003 365) 4)
                   (- (div k!10003 365) 1)
                   (div k!10003 365))
              365)))
  (= k!10004 (- k!10003 a!1))))
(declare-fun k!20000 () Int)
(assert (= k!20000 (ite (>= k!10004 31) (- k!10004 31) k!10004)))
(declare-fun k!20001 () Int)
(assert (= k!20001 (ite (>= k!10004 61) (- k!10004 61) k!20000)))
(declare-fun k!20002 () Int)
(assert (= k!20002 (ite (>= k!10004 92) (- k!10004 92) k!20001)))
(declare-fun k!20003 () Int)
(assert (= k!20003 (ite (>= k!10004 122) (- k!10004 122) k!20002)))
(declare-fun k!20004 () Int)
(assert (= k!20004 (ite (>= k!10004 153) (- k!10004 153) k!20003)))
(declare-fun k!20005 () Int)
(assert (= k!20005 (ite (>= k!10004 184) (- k!10004 184) k!20004)))
(declare-fun k!20006 () Int)
(assert (= k!20006 (ite (>= k!10004 214) (- k!10004 214) k!20005)))
(declare-fun k!20007 () Int)
(assert (= k!20007 (ite (>= k!10004 245) (- k!10004 245) k!20006)))
(declare-fun k!20008 () Int)
(assert (= k!20008 (ite (>= k!10004 275) (- k!10004 275) k!20007)))
(declare-fun k!20009 () Int)
(assert (= k!20009 (ite (>= k!10004 306) (- k!10004 306) k!20008)))
(declare-fun k!20010 () Int)
(assert (= k!20010 (ite (>= k!10004 337) (- k!10004 337) k!20009)))
(declare-fun k!20011 () Int)
(assert (= k!20011 (ite (>= k!10004 366) (- k!10004 366) k!20010)))
(declare-fun k!40000 () Int)
(assert (let ((a!1 (ite (>= k!10004 92)
                3
                (ite (>= k!10004 61) 2 (ite (>= k!10004 31) 1 0))))
      (a!5 (+ (ite (= (div k!10003 365) 4)
                   (- (div k!10003 365) 1)
                   (div k!10003 365))
              (* 4 k!30003)
              (* 100 k!30002)
              (* 400 k!30001)
              100)))
(let ((a!2 (ite (>= k!10004 184)
                6
                (ite (>= k!10004 153) 5 (ite (>= k!10004 122) 4 a!1)))))
(let ((a!3 (ite (>= k!10004 275)
                9
                (ite (>= k!10004 245) 8 (ite (>= k!10004 214) 7 a!2)))))
(let ((a!4 (ite (>= k!10004 366)
                12
                (ite (>= k!10004 337) 11 (ite (>= k!10004 306) 10 a!3)))))
(let ((a!6 (+ (ite (>= (+ a!4 2) 12) (+ a!5 1) a!5) 1900)))
  (= k!40000 a!6)))))))
(declare-fun k!40001 () Int)
(assert (let ((a!1 (ite (>= k!10004 92)
                3
                (ite (>= k!10004 61) 2 (ite (>= k!10004 31) 1 0)))))
(let ((a!2 (ite (>= k!10004 184)
                6
                (ite (>= k!10004 153) 5 (ite (>= k!10004 122) 4 a!1)))))
(let ((a!3 (ite (>= k!10004 275)
                9
                (ite (>= k!10004 245) 8 (ite (>= k!10004 214) 7 a!2)))))
(let ((a!4 (ite (>= k!10004 366)
                12
                (ite (>= k!10004 337) 11 (ite (>= k!10004 306) 10 a!3)))))
(let ((a!5 (+ (ite (>= (+ a!4 2) 12) (- (+ a!4 2) 12) (+ a!4 2)) 1)))
  (= k!40001 a!5)))))))
(declare-fun k!40002 () Int)
(assert (= k!40002 (+ k!20011 1)))
(declare-fun k!50000 () Int)
(assert (let ((a!1 (div (* 4 (+ (div t 86400) 68569 2440588)) 146097)))
(let ((a!2 (- (+ (div t 86400) 68569 2440588) (div (+ (* 146097 a!1) 3) 4))))
(let ((a!3 (* 1461 (div (* 4000 (+ a!2 1)) 1461001))))
(let ((a!4 (* 80 (+ (- a!2 (div a!3 4)) 31))))
(let ((a!5 (+ (* 100 (- a!1 49))
              (div (* 4000 (+ a!2 1)) 1461001)
              (div (div a!4 2447) 11))))
  (= k!50000 a!5)))))))
(declare-fun k!50001 () Int)
(assert (let ((a!1 (div (* 4 (+ (div t 86400) 68569 2440588)) 146097)))
(let ((a!2 (- (+ (div t 86400) 68569 2440588) (div (+ (* 146097 a!1) 3) 4))))
(let ((a!3 (* 1461 (div (* 4000 (+ a!2 1)) 1461001))))
(let ((a!4 (* 80 (+ (- a!2 (div a!3 4)) 31))))
(let ((a!5 (- (+ (div a!4 2447) 2) (* 12 (div (div a!4 2447) 11)))))
  (= k!50001 a!5)))))))
(declare-fun k!50002 () Int)
(assert (let ((a!1 (div (* 4 (+ (div t 86400) 68569 2440588)) 146097)))
(let ((a!2 (- (+ (div t 86400) 68569 2440588) (div (+ (* 146097 a!1) 3) 4))))
(let ((a!3 (* 1461 (div (* 4000 (+ a!2 1)) 1461001))))
(let ((a!4 (* 80 (+ (- a!2 (div a!3 4)) 31))))
(let ((a!5 (- (+ (- a!2 (div a!3 4)) 31) (div (* 2447 (div a!4 2447)) 80))))
  (= k!50002 a!5)))))))
(assert (or (distinct k!40002 k!50002)
    (distinct k!40001 k!50001)
    (distinct k!40000 k!50000)))
(check-sat)
